
  32    4
  10   10   10   10

   0   0   0   0   0  10 2 3 4 5 8 9 11 14 22 23 
   3   1   1   0   1   5 31 16 15 13 6 
   2   2   0   1   3   3 16 15 6 
   8   4   3   0   6   5 27 20 16 13 7 
   5   3   5   0   3   8 31 30 21 19 18 16 15 13 
   6   5   0   5   4   2 10 7 
   1   0   3   3   7   4 28 19 18 12 
   1   0   3   5   3   7 30 29 27 26 24 20 18 
   9   3   0   5   3   4 31 20 16 15 
   8   3   1   0   5   6 30 29 27 26 19 18 
   9   0   4   3   6   3 25 17 15 
   6   6   0   3   5   4 30 29 24 17 
   6   3   7   0   3   3 28 24 17 
   1   4   5   4   0   3 27 25 19 
   3   0   3   5   4   3 27 26 24 
   8   6   6   5   0   2 25 24 
   8   4   0   5   2   1 26 
  10   4   0   6   6   1 25 
   6   0   4   2   3   1 24 
   3   0   5   7   5   1 28 
   5   3   2   3   0   1 25 
   9   5   5   6   0   1 29 
   6   2   4   0   2   1 24 
   9   5   0   3   4   1 32
   9   5   5   0   3   1 32
   6   8   0   3   4   1 32
  10   3   5   0   6   1 32
   7   4   3   0   6   1 32
   8   5   5   0   5   1 32
   1   0   5   1   3   1 32
   6   0   4   5   2   1 32
   0   0   0   0   0   0 
